Customers:	100	Capacity:	200	Time Bins	4 	Vehicles: 14

Cust	X	Y	Demand	Start	End	Service	PreBin	0-160	160-320	320-480
D	40	50	0	0	240	0	0	0	0	0
0	25	85	20	0	191	10	10	10	80	0
1	22	75	30	0	199	10	10	10	80	0
2	22	85	10	0	190	10	10	10	80	0
3	20	80	40	141	171	10	10	10	80	0
4	20	85	20	0	189	10	10	10	80	0
5	18	75	20	0	196	10	10	10	80	0
6	15	75	20	0	194	10	10	10	80	0
7	15	80	10	91	121	10	10	90	0	0
8	10	35	20	91	121	10	10	90	0	0
9	10	40	30	0	198	10	10	10	80	0
10	8	40	40	59	89	10	10	90	0	0
11	8	45	20	0	197	10	10	10	80	0
12	5	35	10	142	172	10	10	10	80	0
13	5	45	10	0	194	10	10	10	80	0
14	2	40	20	58	88	10	10	90	0	0
15	0	40	20	0	188	10	10	10	80	0
16	0	45	20	0	189	10	10	10	80	0
17	44	5	20	0	184	10	10	10	80	0
18	42	10	40	0	189	10	10	10	80	0
19	42	15	10	0	194	10	10	10	80	0
20	40	5	10	0	185	10	10	10	80	0
21	40	15	40	0	195	10	10	10	80	0
22	38	5	30	65	95	10	10	90	0	0
23	38	15	10	0	194	10	10	10	80	0
24	35	5	20	154	184	10	10	10	80	0
25	95	30	30	0	171	10	10	10	80	0
26	95	35	20	0	172	10	10	10	80	0
27	92	30	10	0	174	10	10	10	80	0
28	90	35	10	0	177	10	10	10	80	0
29	88	30	10	0	178	10	10	10	80	0
30	88	35	20	0	179	10	10	10	80	0
31	87	30	10	0	178	10	10	10	80	0
32	85	25	10	0	178	10	10	10	80	0
33	85	35	30	0	182	10	10	10	80	0
34	67	85	20	0	185	10	10	10	80	0
35	65	85	40	0	186	10	10	10	80	0
36	65	82	10	0	189	10	10	10	80	0
37	62	80	30	75	105	10	10	90	0	0
38	60	80	10	0	193	10	10	10	80	0
39	60	85	30	0	189	10	10	10	80	0
40	58	75	20	0	199	10	10	10	80	0
41	55	80	10	0	196	10	10	10	80	0
42	55	85	20	0	191	10	10	10	80	0
43	55	82	10	64	94	10	10	90	0	0
44	20	82	10	0	192	10	10	10	80	0
45	18	80	10	0	192	10	10	10	80	0
46	2	45	10	0	191	10	10	10	80	0
47	42	5	10	0	184	10	10	10	80	0
48	42	12	10	0	191	10	10	10	80	0
49	72	35	30	0	194	10	10	10	80	0
50	55	20	19	0	196	10	10	10	80	0
51	25	30	3	0	205	10	10	10	80	0
52	20	50	5	91	121	10	10	90	0	0
53	55	60	16	0	211	10	10	10	80	0
54	30	60	16	140	170	10	10	10	80	0
55	50	35	19	0	211	10	10	10	80	0
56	30	25	23	0	203	10	10	10	80	0
57	15	10	20	152	182	10	10	10	80	0
58	10	20	19	0	187	10	10	10	80	0
59	15	60	17	0	203	10	10	10	80	0
60	45	65	9	0	214	10	10	10	80	0
61	65	35	3	52	82	10	10	90	0	0
62	65	20	6	0	190	10	10	10	80	0
63	45	30	17	0	209	10	10	10	80	0
64	35	40	16	0	218	10	10	10	80	0
65	41	37	16	0	216	10	10	10	80	0
66	64	42	9	70	100	10	10	90	0	0
67	40	60	21	0	220	10	10	10	80	0
68	31	52	27	41	71	10	100	0	0	0
69	35	69	23	0	210	10	10	10	80	0
70	65	55	14	0	204	10	10	10	80	0
71	63	65	8	0	202	10	10	10	80	0
72	2	60	5	0	190	10	10	10	80	0
73	20	20	8	141	171	10	10	10	80	0
74	5	5	16	0	172	10	10	10	80	0
75	60	12	31	75	105	10	10	90	0	0
76	23	3	7	150	180	10	10	10	80	0
77	8	56	27	0	197	10	10	10	80	0
78	6	68	30	89	119	10	10	90	0	0
79	47	47	13	0	222	10	10	10	80	0
80	49	58	10	0	217	10	10	10	80	0
81	27	43	9	0	215	10	10	10	80	0
82	37	31	14	0	210	10	10	10	80	0
83	57	29	18	96	126	10	10	90	0	0
84	63	23	2	0	194	10	10	10	80	0
85	21	24	28	0	197	10	10	10	80	0
86	12	24	13	90	120	10	10	90	0	0
87	24	58	19	0	212	10	10	10	80	0
88	67	5	25	0	177	10	10	10	80	0
89	37	47	6	0	225	10	10	10	80	0
90	49	42	13	0	217	10	10	10	80	0
91	53	43	14	14	44	10	100	0	0	0
92	61	52	3	0	208	10	10	10	80	0
93	57	48	23	0	212	10	10	10	80	0
94	56	37	6	0	209	10	10	10	80	0
95	55	54	26	0	214	10	10	10	80	0
96	4	18	35	0	181	10	10	10	80	0
97	26	52	9	0	215	10	10	10	80	0
98	26	35	15	77	107	10	10	90	0	0
99	31	67	3	180	210	10	10	10	80	0

Known Requests 10
Cust	Arrival	Start	Deadline	Demand	Service
3	-1	141	171		40	10
13	-1	0	194		10	10
27	-1	0	174		10	10
33	-1	0	182		30	10
37	-1	75	105		30	10
58	-1	0	187		19	10
62	-1	0	190		6	10
68	-1	41	71		27	10
81	-1	0	215		9	10
91	-1	14	44		14	10

Unknown Requests 85
Cust	Arrival	Start	Deadline	Demand	Service
61	4	52	82		3	10
22	5	65	95		30	10
70	7	7	204		14	10
52	14	91	121		5	10
66	15	70	100		9	10
43	18	64	94		10	10
1	33	33	199		30	10
33	33	33	182		30	10
46	34	34	191		10	10
13	35	35	194		10	10
75	35	75	105		31	10
55	36	36	211		19	10
8	37	91	121		20	10
37	37	75	105		30	10
83	38	96	126		18	10
14	39	58	88		20	10
99	39	180	210		3	10
10	43	59	89		40	10
18	44	44	189		40	10
78	44	89	119		30	10
24	61	154	184		20	10
86	79	90	120		13	10
57	80	152	182		20	10
65	80	80	216		16	10
87	80	80	212		19	10
63	82	82	209		17	10
90	82	82	217		13	10
3	83	141	171		40	10
33	83	83	182		30	10
27	86	86	174		10	10
59	86	86	203		17	10
92	87	87	208		3	10
64	88	88	218		16	10
72	88	88	190		5	10
30	90	90	179		20	10
44	90	90	192		10	10
56	94	94	203		23	10
81	94	94	215		9	10
73	95	141	171		8	10
32	96	96	178		10	10
74	96	96	172		16	10
46	99	99	191		10	10
47	99	99	184		10	10
45	101	101	192		10	10
28	103	103	177		10	10
21	106	106	195		40	10
6	107	107	194		20	10
49	108	108	194		30	10
50	108	108	196		19	10
26	109	109	172		20	10
15	110	110	188		20	10
25	110	110	171		30	10
84	110	110	194		2	10
24	112	154	184		20	10
67	112	112	220		21	10
19	113	113	194		10	10
35	117	117	186		40	10
12	118	142	172		10	10
31	123	123	178		10	10
70	125	125	204		14	10
39	126	126	189		30	10
11	127	127	197		20	10
95	127	127	214		26	10
96	128	128	181		35	10
40	130	130	199		20	10
17	137	137	184		20	10
77	138	138	197		27	10
80	138	138	217		10	10
48	140	140	191		10	10
71	140	140	202		8	10
41	141	141	196		10	10
53	141	141	211		16	10
62	142	142	190		6	10
23	145	145	194		10	10
94	145	145	209		6	10
55	148	148	211		19	10
69	148	148	210		23	10
85	148	148	197		28	10
1	150	150	199		30	10
51	151	151	205		3	10
5	152	152	196		20	10
89	152	152	225		6	10
9	154	154	198		30	10
93	157	157	212		23	10
97	159	159	215		9	10

Pre bin Customers: 2 Block 1 Customers: 15 Block 2 Customers: 83
Customers appear O times: 18
Customers appear 1 times: 70
Customers appear 2 times: 11
Customers appear 3 times: 1
Customers appear 4 times: 0
